w = 16;
h = 16;
n = 10;
m = 16;
rect_size = [|
3, 3|
3, 3|
3, 3|
3, 3|
6, 3|
3, 6|
4, 3|
3, 4|
6, 10|
10, 6|
3, 10|
10, 3|
7, 10|
10, 7|
10, 3|
3, 10|];
rect_offset = [|
0, 0|
0, 0|
0, 0|
0, 0|
0, 0|
0, 0|
0, 0|
0, 0|
0, 0|
0, 0|
0, 0|
0, 0|
0, 0|
0, 0|
0, 0|
0, 0|];
shape = [{1}, {2}, {3}, {4}, {5}, {6}, {7}, {8}, {9}, {10}, {11}, {12}, {13}, {14}, {15}, {16}];
shapeind = [{1}, {2}, {3}, {4}, {5, 6}, {7, 8}, {9, 10}, {11, 12}, {13, 14}, {15, 16}];
ncopy = [4, 1, 1, 1, 1, 1, 1];
c = 7;
